100 8
473 683
268 160
212 734
198 137
297 630
420 817
413 682
747 473
346 213
282 146
524 88
200 822
110 250
649 284
425 629
479 676
321 713
185 849
172 400
653 593
629 587
184 811
306 686
533 569
784 351
686 679
848 670
607 299
190 756
761 385
499 597
437 789
490 793
170 78
921 427
679 375
134 527
552 29
612 59
741 530
515 568
420 836
232 770
466 214
170 390
194 203
242 716
229 890
353 255
627 373
288 137
229 568
876 579
446 880
741 777
300 487
629 625
731 468
789 767
443 42
879 795
478 864
253 546
316 256
791 674
91 785
276 615
492 716
489 798
761 459
540 412
761 199
158 515
502 179
724 398
282 707
737 681
233 747
453 101
772 70
862 476
446 167
242 803
260 760
780 818
702 366
197 720
518 823
461 865
858 565
879 730
697 322
732 395
184 214
281 664
774 792
428 218
309 668
887 605
798 584
